p tdp 57 111
36 51
45 49
23 55
34 35
28 32
4 26
38 43
33 45
16 48
2 56
6 29
18 30
5 25
20 44
30 52
36 40
7 42
9 44
8 20
1 27
16 43
22 34
23 42
6 56
26 45
18 46
34 41
9 24
44 51
30 42
21 42
48 49
18 50
39 53
13 57
14 54
15 37
19 56
5 53
10 11
2 31
12 32
17 49
32 56
27 53
3 15
14 27
10 57
20 39
3 47
3 18
8 13
24 29
4 36
21 44
24 41
14 57
4 50
49 54
5 50
21 52
7 39
47 53
14 52
6 54
5 19
2 7
43 51
2 25
28 33
50 55
11 16
7 12
10 25
16 26
18 28
15 25
17 46
8 51
1 20
40 56
24 35
5 8
1 2
12 55
22 31
6 47
6 51
25 26
21 29
6 39
21 24
13 45
18 55
33 56
10 22
37 39
12 16
32 55
3 42
24 40
48 55
23 57
28 39
7 32
15 56
8 11
53 56
7 20
21 40
12 34
